Problem:    
Rows:       354
Columns:    129 (110 integer, 110 binary)
Non-zeros:  1125
Status:     INTEGER OPTIMAL
Objective:  value = 21.972771 (MINimum)

   No.   Row name        Activity     Lower bound   Upper bound
------ ------------    ------------- ------------- -------------
     1 r.5                         1             1             = 
     2 r.6                   1021.97             0               
     3 r.7                  -988.683      -997.231               
     4 r.8                   21.9728             0               
     5 r.9                   21.9728      -996.643               
     6 r.10                  1021.97             0               
     7 r.11                 -978.027      -996.141               
     8 r.12                  21.9728             0               
     9 r.13                  21.9728       -995.68               
    10 r.14                  21.9728             0               
    11 r.15                 -978.849      -996.963               
    12 r.16                  1021.97             0               
    13 r.17                 -978.027      -996.266               
    14 r.18                  1021.97             0               
    15 r.19                 -991.452      -996.089               
    16 r.20                  21.9728             0               
    17 r.21                  21.9728      -995.054               
    18 r.22                  1021.97             0               
    19 r.23                 -995.362      -996.164               
    20 r.24                  21.9728             0               
    21 r.25                  8.54812      -995.749               
    22 r.26                  21.9728             0               
    23 r.27                 -982.704      -993.356               
    24 r.28                  1021.97             0               
    25 r.29                 -981.961      -992.613               
    26 r.30                  1021.97             0               
    27 r.31                 -981.886      -993.203               
    28 r.32                  21.9728             0               
    29 r.33                   18.114      -990.643               
    30 r.34                  21.9728             0               
    31 r.35                  10.6516       -990.96               
    32 r.36                  1021.97             0               
    33 r.37                 -989.348       -990.15               
    34 r.38                  1021.97             0               
    35 r.39                 -999.199      -999.199               
    36 r.40                  21.9728             0               
    37 r.41                 0.801323      -997.645               
    38 r.42                        1             1             = 
    39 r.43                        1             1             = 
    40 r.44                        1             1             = 
    41 r.45                        1             1             = 
    42 r.46                        1             1             = 
    43 r.47                        1             1             = 
    44 r.48                        1             1             = 
    45 r.49                        1             1             = 
    46 r.50                        1             1             = 
    47 r.51                        2             2               
    48 r.52                       -2         -1001               
    49 r.53                 -989.344      -996.141               
    50 r.54                     1000             2               
    51 r.55                    -1000         -1001               
    52 r.56                     2000       -995.68               
    53 r.57                     1001             2               
    54 r.58                    -1001         -1001               
    55 r.59                  1009.83      -996.963               
    56 r.60                     1001             2               
    57 r.61                    -1001         -1001               
    58 r.62                     2000      -996.266               
    59 r.63                        2             2               
    60 r.64                       -2         -1001               
    61 r.65                 -2.76852      -996.089               
    62 r.66                     1000             2               
    63 r.67                    -1000         -1001               
    64 r.68                     2000      -995.054               
    65 r.69                 -993.321      -997.231               
    66 r.70                  17.3352      -996.643               
    67 r.71                 -997.231      -997.231               
    68 r.72                  13.4246      -996.643               
    69 r.73                     1001             2               
    70 r.74                    -1001         -1001               
    71 r.75                  1005.98      -993.356               
    72 r.76                     1001             2               
    73 r.77                    -1001         -1001               
    74 r.78                  1996.07      -992.613               
    75 r.79                        2             2               
    76 r.80                       -2         -1001               
    77 r.81                 -993.203      -993.203               
    78 r.82                     1000             2               
    79 r.83                    -1000         -1001               
    80 r.84                  1996.14      -990.643               
    81 r.85                     1001             2               
    82 r.86                    -1001         -1001               
    83 r.87                  1999.33       -990.96               
    84 r.88                     1001             2               
    85 r.89                    -1001         -1001               
    86 r.90                  1988.68       -990.15               
    87 r.91                        2             2               
    88 r.92                       -2         -1001               
    89 r.93                  989.344       2.76852               
    90 r.94                     1000             2               
    91 r.95                    -1000         -1001               
    92 r.96                     2000        3.3565               
    93 r.97                     1001             2               
    94 r.98                    -1001         -1001               
    95 r.99                  999.178      -996.963               
    96 r.100                    1001             2               
    97 r.101                   -1001         -1001               
    98 r.102                    2000      -996.266               
    99 r.103                       2             2               
   100 r.104                      -2         -1001               
   101 r.105                -13.4246      -996.089               
   102 r.106                    1000             2               
   103 r.107                   -1000         -1001               
   104 r.108                    2000      -995.054               
   105 r.109                       2             2               
   106 r.110                      -2         -1001               
   107 r.111                -17.3352      -996.164               
   108 r.112                    1000             2               
   109 r.113                   -1000         -1001               
   110 r.114                 1986.58      -995.749               
   111 r.115                 4.67668      -996.141               
   112 r.116                 1004.68       -995.68               
   113 r.117                -996.066      -996.141               
   114 r.118                 3.93396       -995.68               
   115 r.119                       2             2               
   116 r.120                      -2         -1001               
   117 r.121                -3.85874      -993.203               
   118 r.122                    1000             2               
   119 r.123                   -1000         -1001               
   120 r.124                 1996.14      -990.643               
   121 r.125                    1001             2               
   122 r.126                   -1001         -1001               
   123 r.127                 2990.17       2.76852               
   124 r.128                    1001             2               
   125 r.129                   -1001         -1001               
   126 r.130                    2000        3.3565               
   127 r.131                    1001             2               
   128 r.132                   -1001         -1001               
   129 r.133                 3000.82       3.85874               
   130 r.134                    1001             2               
   131 r.135                   -1001         -1001               
   132 r.136                    2000       4.31992               
   133 r.137                    1001             2               
   134 r.138                   -1001         -1001               
   135 r.139                  2987.4      -996.089               
   136 r.140                    1001             2               
   137 r.141                   -1001         -1001               
   138 r.142                    2000      -995.054               
   139 r.143                    1001             2               
   140 r.144                   -1001         -1001               
   141 r.145                 2983.49      -996.164               
   142 r.146                    1001             2               
   143 r.147                   -1001         -1001               
   144 r.148                 1986.58      -995.749               
   145 r.149                    1000             2               
   146 r.150                   -1000         -1001               
   147 r.151                 1996.14      -993.356               
   148 r.152                       2             2               
   149 r.153                      -2         -1001               
   150 r.154                -3.93396      -992.613               
   151 r.155                -996.963      -996.963               
   152 r.156                -996.141      -996.266               
   153 r.157                -996.963      -996.963               
   154 r.158                -996.141      -996.266               
   155 r.159                    1000             2               
   156 r.160                   -1000         -1001               
   157 r.161                  2989.5       -990.96               
   158 r.162                       2             2               
   159 r.163                      -2         -1001               
   160 r.164                -11.3212       -990.15               
   161 r.165                       2             2               
   162 r.166                      -2         -1001               
   163 r.167                 2.76852       2.76852               
   164 r.168                    1000             2               
   165 r.169                   -1000         -1001               
   166 r.170                    2000        3.3565               
   167 r.171                       2             2               
   168 r.172                      -2         -1001               
   169 r.173                 13.4246       3.85874               
   170 r.174                    1000             2               
   171 r.175                   -1000         -1001               
   172 r.176                    2000       4.31992               
   173 r.177                    1001             2               
   174 r.178                   -1001         -1001               
   175 r.179                  1012.6       3.03709               
   176 r.180                    1001             2               
   177 r.181                   -1001         -1001               
   178 r.182                    2000       3.73407               
   179 r.183                       2             2               
   180 r.184                      -2         -1001               
   181 r.185                -3.91053      -996.164               
   182 r.186                    1000             2               
   183 r.187                   -1000         -1001               
   184 r.188                 1986.58      -995.749               
   185 r.189                    1001             2               
   186 r.190                   -1001         -1001               
   187 r.191                 1008.75      -993.356               
   188 r.192                    1001             2               
   189 r.193                   -1001         -1001               
   190 r.194                 1996.07      -992.613               
   191 r.195                       2             2               
   192 r.196                      -2         -1001               
   193 r.197                -990.434      -993.203               
   194 r.198                    1000             2               
   195 r.199                   -1000         -1001               
   196 r.200                 1996.14      -990.643               
   197 r.201                    1001             2               
   198 r.202                   -1001         -1001               
   199 r.203                  2002.1       -990.96               
   200 r.204                    1001             2               
   201 r.205                   -1001         -1001               
   202 r.206                 1988.68       -990.15               
   203 r.207                -992.253      -996.089               
   204 r.208                 21.1714      -995.054               
   205 r.209                -992.253      -996.089               
   206 r.210                 21.1714      -995.054               
   207 r.211                       2             2               
   208 r.212                      -2         -1001               
   209 r.213                 17.3352       3.85874               
   210 r.214                    1000             2               
   211 r.215                   -1000         -1001               
   212 r.216                 2013.42       4.31992               
   213 r.217                    1001             2               
   214 r.218                   -1001         -1001               
   215 r.219                 1016.51       3.03709               
   216 r.220                    1001             2               
   217 r.221                   -1001         -1001               
   218 r.222                 2013.42       3.73407               
   219 r.223                       2             2               
   220 r.224                      -2         -1001               
   221 r.225                 3.91053       3.91053               
   222 r.226                    1000             2               
   223 r.227                   -1000         -1001               
   224 r.228                 2013.42       4.94555               
   225 r.229                    1001             2               
   226 r.230                   -1001         -1001               
   227 r.231                 1012.66      -993.356               
   228 r.232                    1001             2               
   229 r.233                   -1001         -1001               
   230 r.234                 2009.49      -992.613               
   231 r.235                       2             2               
   232 r.236                      -2         -1001               
   233 r.237                -986.524      -993.203               
   234 r.238                    1000             2               
   235 r.239                   -1000         -1001               
   236 r.240                 2009.57      -990.643               
   237 r.241                    1001             2               
   238 r.242                   -1001         -1001               
   239 r.243                 2006.01       -990.96               
   240 r.244                    1001             2               
   241 r.245                   -1001         -1001               
   242 r.246                  2002.1       -990.15               
   243 r.247                -996.164      -996.164               
   244 r.248                  7.7468      -995.749               
   245 r.249                -996.164      -996.164               
   246 r.250                  7.7468      -995.749               
   247 r.251                    1001             2               
   248 r.252                   -1001         -1001               
   249 r.253                 2994.02       2.76852               
   250 r.254                    1001             2               
   251 r.255                   -1001         -1001               
   252 r.256                 2003.93        3.3565               
   253 r.257                    1000             2               
   254 r.258                   -1000         -1001               
   255 r.259                 2003.86       3.03709               
   256 r.260                       2             2               
   257 r.261                      -2         -1001               
   258 r.262                 3.93396       3.73407               
   259 r.263                    1001             2               
   260 r.264                   -1001         -1001               
   261 r.265                 2991.25       3.91053               
   262 r.266                    1001             2               
   263 r.267                   -1001         -1001               
   264 r.268                 2003.93       4.94555               
   265 r.269                    1001             2               
   266 r.270                   -1001         -1001               
   267 r.271                 2987.34       3.83627               
   268 r.272                    1001             2               
   269 r.273                   -1001         -1001               
   270 r.274                 1990.51       4.25106               
   271 r.275                    1001             2               
   272 r.276                   -1001         -1001               
   273 r.277                 3000.82      -993.203               
   274 r.278                    1001             2               
   275 r.279                   -1001         -1001               
   276 r.280                 2000.08      -990.643               
   277 r.281                -993.356      -993.356               
   278 r.282                -992.613      -992.613               
   279 r.283                -993.356      -993.356               
   280 r.284                -992.613      -992.613               
   281 r.285                       2             2               
   282 r.286                      -2         -1001               
   283 r.287                 993.203       2.76852               
   284 r.288                    1000             2               
   285 r.289                   -1000         -1001               
   286 r.290                 2003.86        3.3565               
   287 r.291                       2             2               
   288 r.292                      -2         -1001               
   289 r.293                 3.85874       3.85874               
   290 r.294                    1000             2               
   291 r.295                   -1000         -1001               
   292 r.296                 2003.86       4.31992               
   293 r.297                       2             2               
   294 r.298                      -2         -1001               
   295 r.299                 990.434       3.91053               
   296 r.300                    1000             2               
   297 r.301                   -1000         -1001               
   298 r.302                 2003.86       4.94555               
   299 r.303                       2             2               
   300 r.304                      -2         -1001               
   301 r.305                 986.524       3.83627               
   302 r.306                    1000             2               
   303 r.307                   -1000         -1001               
   304 r.308                 1990.43       4.25106               
   305 r.309                    1001             2               
   306 r.310                   -1001         -1001               
   307 r.311                 999.182       6.64449               
   308 r.312                    1001             2               
   309 r.313                   -1001         -1001               
   310 r.314                 1999.92        7.3872               
   311 r.315                    1001             2               
   312 r.316                   -1001         -1001               
   313 r.317                 1992.54       -990.96               
   314 r.318                    1001             2               
   315 r.319                   -1001         -1001               
   316 r.320                 1992.54       -990.15               
   317 r.321                -982.687      -993.203               
   318 r.322                 17.3127      -990.643               
   319 r.323                -982.687      -993.203               
   320 r.324                 17.3127      -990.643               
   321 r.325                    1001             2               
   322 r.326                   -1001         -1001               
   323 r.327                 2000.67       2.76852               
   324 r.328                    1001             2               
   325 r.329                   -1001         -1001               
   326 r.330                 2011.32        3.3565               
   327 r.331                    1000             2               
   328 r.332                   -1000         -1001               
   329 r.333                  1010.5       3.03709               
   330 r.334                       2             2               
   331 r.335                      -2         -1001               
   332 r.336                 11.3212       3.73407               
   333 r.337                    1001             2               
   334 r.338                   -1001         -1001               
   335 r.339                  1997.9       3.91053               
   336 r.340                    1001             2               
   337 r.341                   -1001         -1001               
   338 r.342                 2011.32       4.94555               
   339 r.343                    1001             2               
   340 r.344                   -1001         -1001               
   341 r.345                 1993.99       3.83627               
   342 r.346                    1001             2               
   343 r.347                   -1001         -1001               
   344 r.348                  1997.9       4.25106               
   345 r.349                    1001             2               
   346 r.350                   -1001         -1001               
   347 r.351                 2007.46       6.79739               
   348 r.352                    1001             2               
   349 r.353                   -1001         -1001               
   350 r.354                 2007.46       9.35712               
   351 r.355                 9.85028       -990.96               
   352 r.356                 -990.15       -990.15               
   353 r.357                 9.85028       -990.96               
   354 r.358                 -990.15       -990.15               

   No. Column name       Activity     Lower bound   Upper bound
------ ------------    ------------- ------------- -------------
     1 tt                    21.9728             0               
     2 s_1_9        *              1             0             1 
     3 s_1_1        *              1             0             1 
     4 t_1_1                 10.6561             0               
     5 s_2_1        *              0             0             1 
     6 t_2_1                       0             0               
     7 s_1_2        *              1             0             1 
     8 t_1_2                       0             0               
     9 s_2_2        *              0             0             1 
    10 t_2_2                       0             0               
    11 s_1_3        *              0             0             1 
    12 t_1_3                 1000.82             0               
    13 s_2_3        *              1             0             1 
    14 t_2_3                       0             0               
    15 s_1_4        *              1             0             1 
    16 t_1_4                 13.4246             0               
    17 s_2_4        *              0             0             1 
    18 t_2_4                       0             0               
    19 s_1_5        *              1             0             1 
    20 t_1_5                 17.3352             0               
    21 s_2_5        *              0             0             1 
    22 t_2_5                 13.4246             0               
    23 s_1_6        *              0             0             1 
    24 t_1_6                 1004.68             0               
    25 s_2_6        *              1             0             1 
    26 t_2_6                 3.93396             0               
    27 s_1_7        *              1             0             1 
    28 t_1_7                 3.85874             0               
    29 s_2_7        *              0             0             1 
    30 t_2_7                 3.85874             0               
    31 s_1_8        *              0             0             1 
    32 t_1_8                 11.3212             0               
    33 s_2_8        *              1             0             1 
    34 t_2_8                 11.3212             0               
    35 t_1_9                 21.1714             0               
    36 s_2_9        *              0             0             1 
    37 t_2_9                 21.1714             0               
    38 r_1_1_2      *              0             0             1 
    39 u_1_1_2      *              1             0             1 
    40 r_2_1_2      *              1             0             1 
    41 u_2_1_2      *              0             0             1 
    42 r_1_1_3      *              1             0             1 
    43 u_1_1_3      *              0             0             1 
    44 r_2_1_3      *              1             0             1 
    45 u_2_1_3      *              0             0             1 
    46 r_1_1_4      *              0             0             1 
    47 u_1_1_4      *              0             0             1 
    48 r_2_1_4      *              1             0             1 
    49 u_2_1_4      *              0             0             1 
    50 r_1_1_6      *              1             0             1 
    51 u_1_1_6      *              0             0             1 
    52 r_2_1_6      *              1             0             1 
    53 u_2_1_6      *              0             0             1 
    54 r_1_1_7      *              0             0             1 
    55 u_1_1_7      *              1             0             1 
    56 r_2_1_7      *              1             0             1 
    57 u_2_1_7      *              0             0             1 
    58 r_1_1_8      *              1             0             1 
    59 u_1_1_8      *              0             0             1 
    60 r_2_1_8      *              1             0             1 
    61 u_2_1_8      *              0             0             1 
    62 r_1_2_3      *              1             0             1 
    63 u_1_2_3      *              0             0             1 
    64 r_2_2_3      *              1             0             1 
    65 u_2_2_3      *              0             0             1 
    66 r_1_2_4      *              0             0             1 
    67 u_1_2_4      *              0             0             1 
    68 r_2_2_4      *              1             0             1 
    69 u_2_2_4      *              0             0             1 
    70 r_1_2_5      *              0             0             1 
    71 u_1_2_5      *              0             0             1 
    72 r_2_2_5      *              1             0             1 
    73 u_2_2_5      *              0             0             1 
    74 r_1_2_7      *              0             0             1 
    75 u_1_2_7      *              0             0             1 
    76 r_2_2_7      *              1             0             1 
    77 u_2_2_7      *              0             0             1 
    78 r_1_3_4      *              1             0             1 
    79 u_1_3_4      *              0             0             1 
    80 r_2_3_4      *              1             0             1 
    81 u_2_3_4      *              0             0             1 
    82 r_1_3_5      *              1             0             1 
    83 u_1_3_5      *              0             0             1 
    84 r_2_3_5      *              1             0             1 
    85 u_2_3_5      *              0             0             1 
    86 r_1_3_6      *              1             0             1 
    87 u_1_3_6      *              0             0             1 
    88 r_2_3_6      *              0             0             1 
    89 u_2_3_6      *              0             0             1 
    90 r_1_3_8      *              1             0             1 
    91 u_1_3_8      *              0             0             1 
    92 r_2_3_8      *              0             0             1 
    93 u_2_3_8      *              0             0             1 
    94 r_1_4_5      *              0             0             1 
    95 u_1_4_5      *              0             0             1 
    96 r_2_4_5      *              1             0             1 
    97 u_2_4_5      *              0             0             1 
    98 r_1_4_6      *              1             0             1 
    99 u_1_4_6      *              0             0             1 
   100 r_2_4_6      *              1             0             1 
   101 u_2_4_6      *              0             0             1 
   102 r_1_4_7      *              0             0             1 
   103 u_1_4_7      *              1             0             1 
   104 r_2_4_7      *              1             0             1 
   105 u_2_4_7      *              0             0             1 
   106 r_1_4_8      *              1             0             1 
   107 u_1_4_8      *              0             0             1 
   108 r_2_4_8      *              1             0             1 
   109 u_2_4_8      *              0             0             1 
   110 r_1_5_6      *              1             0             1 
   111 u_1_5_6      *              0             0             1 
   112 r_2_5_6      *              1             0             1 
   113 u_2_5_6      *              0             0             1 
   114 r_1_5_7      *              0             0             1 
   115 u_1_5_7      *              1             0             1 
   116 r_2_5_7      *              1             0             1 
   117 u_2_5_7      *              0             0             1 
   118 r_1_5_8      *              1             0             1 
   119 u_1_5_8      *              0             0             1 
   120 r_2_5_8      *              1             0             1 
   121 u_2_5_8      *              0             0             1 
   122 r_1_6_7      *              1             0             1 
   123 u_1_6_7      *              0             0             1 
   124 r_2_6_7      *              1             0             1 
   125 u_2_6_7      *              0             0             1 
   126 r_1_7_8      *              1             0             1 
   127 u_1_7_8      *              0             0             1 
   128 r_2_7_8      *              1             0             1 
   129 u_2_7_8      *              0             0             1 

Integer feasibility conditions:

KKT.PE: max.abs.err = 4.55e-13 on row 135
        max.rel.err = 7.58e-17 on row 135
        High quality

KKT.PB: max.abs.err = 3.15e-14 on row 163
        max.rel.err = 8.37e-15 on row 163
        High quality

End of output
